SYSTEM = cubic_FAPbI3

ICHARG = 2
ISTART = 0

NSIM= 3
ISYM = 2                    
NPAR= 4 
LMAXMIX = 4

ALGO = Normal 
PREC = Accurate
EDIFF = 1e-4  
EDIFFG = -0.05 
NELM=60
ISMEAR = 0 
SIGMA = 0.02
POTIM = 0.3

GGA = PE 
ENCUT = 500
LREAL = .FALSE. 
ISPIN=2
MAGMOM =1*0  2*0  5*0  1*2  3*0    

#Ionic relaxation
NSW = 30
IBRION=2
ISIF=2   

#DFT-correction
IVDW = 12

